
Gurobi 10.0.2 (win64) logging started Fri Jun 21 03:41:23 2024

Set parameter LogFile to value "log/log_difficulty1_MNL_DESKTOP-S7OVCUR_9_44.txt"
Gurobi Optimizer version 10.0.2 build v10.0.2rc0 (win64)

CPU model: Intel(R) Core(TM) i7-10510U CPU @ 1.80GHz, instruction set [SSE2|AVX|AVX2]
Thread count: 4 physical cores, 8 logical processors, using up to 8 threads

Optimize a model with 2020 rows, 676 columns and 4612 nonzeros
Model fingerprint: 0xc05f4c45
Variable types: 364 continuous, 312 integer (312 binary)
Coefficient statistics:
  Matrix range     [2e-03, 5e+02]
  Objective range  [1e+02, 6e+02]
  Bounds range     [1e+00, 1e+00]
  RHS range        [1e+00, 1e+00]
Found heuristic solution: objective -0.0000000
Presolve removed 224 rows and 104 columns
Presolve time: 0.03s
Presolved: 1796 rows, 572 columns, 4249 nonzeros
Found heuristic solution: objective 2104.1523397
Variable types: 308 continuous, 264 integer (264 binary)

Root relaxation: objective 1.655306e+04, 399 iterations, 0.02 seconds (0.00 work units)

    Nodes    |    Current Node    |     Objective Bounds      |     Work
 Expl Unexpl |  Obj  Depth IntInf | Incumbent    BestBd   Gap | It/Node Time

     0     0 16553.0559    0  149 2104.15234 16553.0559   687%     -    0s
H    0     0                    9314.5468877 16553.0559  77.7%     -    0s
H    0     0                    10765.760422 16553.0559  53.8%     -    0s
H    0     0                    13752.460302 15743.0959  14.5%     -    0s
     0     0 15743.0959    0  183 13752.4603 15743.0959  14.5%     -    0s
H    0     0                    14041.746969 15705.7949  11.9%     -    0s
     0     0 15705.7949    0  180 14041.7470 15705.7949  11.9%     -    0s
     0     0 15705.7077    0  188 14041.7470 15705.7077  11.9%     -    0s
H    0     0                    14110.473333 15414.4331  9.24%     -    0s
     0     0 15414.4331    0  188 14110.4733 15414.4331  9.24%     -    0s
H    0     0                    14573.908182 15414.4331  5.77%     -    0s
     0     0 15383.1965    0  190 14573.9082 15383.1965  5.55%     -    0s
     0     0 15373.7494    0  191 14573.9082 15373.7494  5.49%     -    0s
     0     0 15367.5831    0  192 14573.9082 15367.5831  5.45%     -    0s
H    0     0                    14840.245298 15367.2520  3.55%     -    0s
     0     0 15367.2520    0  194 14840.2453 15367.2520  3.55%     -    0s
     0     0 15177.3398    0  179 14840.2453 15177.3398  2.27%     -    0s
H    0     0                    15002.421844 15177.3398  1.17%     -    0s
H    0     0                    15067.684755 15147.7754  0.53%     -    0s
H    0     0                    15076.893911 15147.7754  0.47%     -    0s
     0     0 15147.7754    0  188 15076.8939 15147.7754  0.47%     -    0s
     0     0 15145.5557    0  180 15076.8939 15145.5557  0.46%     -    0s
     0     0 15145.4270    0  179 15076.8939 15145.4270  0.45%     -    0s
     0     0 15114.8043    0  176 15076.8939 15114.8043  0.25%     -    0s
     0     0 15114.8029    0  176 15076.8939 15114.8029  0.25%     -    0s
     0     0 15110.8865    0  178 15076.8939 15110.8865  0.23%     -    0s
     0     0 15108.3868    0  184 15076.8939 15108.3868  0.21%     -    0s
     0     0 15108.0693    0  189 15076.8939 15108.0693  0.21%     -    0s
     0     0 15105.6879    0  175 15076.8939 15105.6879  0.19%     -    0s
     0     0 15105.0704    0  174 15076.8939 15105.0704  0.19%     -    0s
H    0     0                    15087.634170 15103.7956  0.11%     -    0s
     0     0 15103.7956    0  171 15087.6342 15103.7956  0.11%     -    0s
     0     0 15087.6342    0  171 15087.6342 15087.6342  0.00%     -    0s

Cutting planes:
  Gomory: 17
  Implied bound: 13
  MIR: 45
  Flow cover: 107
  RLT: 53
  Relax-and-lift: 7
  BQP: 7

Explored 1 nodes (2321 simplex iterations) in 0.63 seconds (0.22 work units)
Thread count was 8 (of 8 available processors)

Solution count 10: 15087.6 15076.9 15067.7 ... 10765.8

Optimal solution found (tolerance 1.00e-04)
Best objective 1.508763417031e+04, best bound 1.508763417031e+04, gap 0.0000%
